20
1 0 32
2 0 15
2 1 22
3 0 23
3 1 31
3 2 27
4 0 38
4 1 20
4 2 26
4 3 25
5 0 34
5 1 24
5 2 2
5 3 25
6 0 16
6 1 34
6 2 37
6 3 5
6 4 22
6 5 24
7 0 35
7 1 11
7 2 21
7 3 19
7 4 26
7 5 16
7 6 15
8 0 5
8 1 20
8 2 27
8 3 3
8 4 27
8 5 33
8 7 23
9 1 38
9 2 20
9 3 20
9 4 32
9 5 18
9 7 6
9 8 18
10 0 39
10 2 7
10 3 21
10 4 37
10 5 29
10 7 34
10 8 20
10 9 27
11 0 7
11 2 16
11 3 8
11 4 34
11 5 39
11 6 34
11 7 18
11 8 8
11 9 14
11 10 9
12 1 4
12 2 24
12 3 23
12 4 35
12 5 39
12 6 6
12 7 34
12 8 7
12 9 33
12 10 33
13 0 25
13 1 38
13 2 5
13 3 18
13 4 8
13 5 18
13 10 9
13 11 24
13 12 9
14 0 40
14 1 39
14 2 26
14 3 16
14 4 21
14 5 20
14 6 15
14 7 4
14 8 2
14 9 27
14 10 40
14 11 11
14 12 35
14 13 12
15 0 34
15 2 9
15 5 22
15 6 33
15 7 17
15 8 24
15 9 13
15 10 12
15 11 25
15 12 14
15 13 12
15 14 7
16 0 19
16 1 37
16 2 2
16 3 1
16 4 29
16 6 28
16 7 28
16 8 32
16 9 29
16 11 30
16 12 20
16 14 25
16 15 4
17 2 25
17 4 8
17 6 25
17 7 38
17 8 32
17 9 17
17 10 31
17 11 3
17 12 36
17 13 13
17 14 25
17 16 24
18 0 9
18 1 4
18 2 40
18 3 29
18 5 11
18 6 31
18 7 19
18 8 5
18 10 15
18 11 23
18 12 39
18 15 38
18 16 37
18 17 29
19 0 19
19 1 40
19 2 21
19 4 15
19 5 17
19 6 10
19 7 17
19 8 1
19 9 23
19 10 1
19 11 37
19 12 11
19 13 29
19 14 33
19 15 8
19 16 8
19 17 35
19 18 2
